0
Node Left Objective IInf Best_Integer Best_Bound ItCnt Gap
0 0 0.2276 9 0.2276 20
0 2 0.2276 25 0.2276 20 0 0
CPXPARAM_MIP_Cuts_Disjunctive-MIRCut:Disjunctive 0
CPXPARAM_MIP_Cuts_Disjunctive-MIRCut:MIRCut 0
1
Node Left Objective IInf Best_Integer Best_Bound ItCnt Gap
0 0 0.0044 6 0.0044 245
0 2 0.0044 12 0.0071 245 0 0
CPXPARAM_MIP_Cuts_Disjunctive-MIRCut:Disjunctive 0
CPXPARAM_MIP_Cuts_Disjunctive-MIRCut:MIRCut 0
2
Node Left Objective IInf Best_Integer Best_Bound ItCnt Gap
0 0 3.6709 11 3.6709 28
0 2 3.6709 19 3.6709 28 0 0
CPXPARAM_MIP_Cuts_Disjunctive-MIRCut:Disjunctive 0
CPXPARAM_MIP_Cuts_Disjunctive-MIRCut:MIRCut 0
3
Node Left Objective IInf Best_Integer Best_Bound ItCnt Gap
0 0 0.5055 9 0.5055 137
0 2 0.5055 14 0.5055 137 0 0
CPXPARAM_MIP_Cuts_Disjunctive-MIRCut:Disjunctive 0
CPXPARAM_MIP_Cuts_Disjunctive-MIRCut:MIRCut 0
4
Node Left Objective IInf Best_Integer Best_Bound ItCnt Gap
0 0 0.1757 9 0.1757 26
0 2 0.1757 24 0.1757 26 0 0
CPXPARAM_MIP_Cuts_Disjunctive-MIRCut:Disjunctive 0
CPXPARAM_MIP_Cuts_Disjunctive-MIRCut:MIRCut 0
5
Node Left Objective IInf Best_Integer Best_Bound ItCnt Gap
0 0 0.0079 6 0.0079 22
0 2 0.0079 19 0.0079 22 0 0
CPXPARAM_MIP_Cuts_Disjunctive-MIRCut:Disjunctive 0
CPXPARAM_MIP_Cuts_Disjunctive-MIRCut:MIRCut 0
6
Node Left Objective IInf Best_Integer Best_Bound ItCnt Gap
0 0 1.5650 9 1.5650 24
0 2 1.5650 22 1.5650 24 0 0
CPXPARAM_MIP_Cuts_Disjunctive-MIRCut:Disjunctive 0
CPXPARAM_MIP_Cuts_Disjunctive-MIRCut:MIRCut 0
7
Node Left Objective IInf Best_Integer Best_Bound ItCnt Gap
0 0 0.0000 4 0.0000 161
0 2 0.0000 7 0.0000 161 0 0
CPXPARAM_MIP_Cuts_Disjunctive-MIRCut:Disjunctive 0
CPXPARAM_MIP_Cuts_Disjunctive-MIRCut:MIRCut 0
8
Node Left Objective IInf Best_Integer Best_Bound ItCnt Gap
0 0 0.7579 6 0.7579 30
0 2 0.7579 23 0.7579 30 0 0
CPXPARAM_MIP_Cuts_Disjunctive-MIRCut:Disjunctive 0
CPXPARAM_MIP_Cuts_Disjunctive-MIRCut:MIRCut 0
9
Node Left Objective IInf Best_Integer Best_Bound ItCnt Gap
0 0 0.1767 4 0.1767 199
0 2 0.1767 11 0.1767 199 0 0
CPXPARAM_MIP_Cuts_Disjunctive-MIRCut:Disjunctive 0
CPXPARAM_MIP_Cuts_Disjunctive-MIRCut:MIRCut 0
10
Node Left Objective IInf Best_Integer Best_Bound ItCnt Gap
0 0 2.3492 10 2.3492 35
0 2 2.3492 20 2.3492 35 0 0
CPXPARAM_MIP_Cuts_Disjunctive-MIRCut:Disjunctive 0
CPXPARAM_MIP_Cuts_Disjunctive-MIRCut:MIRCut 0
11
Node Left Objective IInf Best_Integer Best_Bound ItCnt Gap
0 0 0.0007 9 0.0007 181
0 2 0.0007 13 0.0007 181 0 0
CPXPARAM_MIP_Cuts_Disjunctive-MIRCut:Disjunctive 0
CPXPARAM_MIP_Cuts_Disjunctive-MIRCut:MIRCut 0
12
Node Left Objective IInf Best_Integer Best_Bound ItCnt Gap
0 0 0.5885 10 0.5885 28
0 2 0.5885 23 0.5885 28 0 0
CPXPARAM_MIP_Cuts_Disjunctive-MIRCut:Disjunctive 0
CPXPARAM_MIP_Cuts_Disjunctive-MIRCut:MIRCut 0
13
Node Left Objective IInf Best_Integer Best_Bound ItCnt Gap
0 0 0.0000 2 0.0000 217
0 2 0.0000 6 0.0000 217 0 0
CPXPARAM_MIP_Cuts_Disjunctive-MIRCut:Disjunctive 0
CPXPARAM_MIP_Cuts_Disjunctive-MIRCut:MIRCut 0
14
Node Left Objective IInf Best_Integer Best_Bound ItCnt Gap
0 0 0.8260 8 0.8260 37
0 2 0.8260 18 0.8260 37 0 0
CPXPARAM_MIP_Cuts_Disjunctive-MIRCut:Disjunctive 0
CPXPARAM_MIP_Cuts_Disjunctive-MIRCut:MIRCut 0
15
Node Left Objective IInf Best_Integer Best_Bound ItCnt Gap
0 0 0.1151 11 0.1151 124
0 2 0.1151 12 0.1151 124 0 0
CPXPARAM_MIP_Cuts_Disjunctive-MIRCut:Disjunctive 0
CPXPARAM_MIP_Cuts_Disjunctive-MIRCut:MIRCut 0
16
Node Left Objective IInf Best_Integer Best_Bound ItCnt Gap
0 0 0.0684 9 0.0684 34
0 2 0.0684 21 0.0684 34 0 0
CPXPARAM_MIP_Cuts_Disjunctive-MIRCut:Disjunctive 0
CPXPARAM_MIP_Cuts_Disjunctive-MIRCut:MIRCut 0
17
Node Left Objective IInf Best_Integer Best_Bound ItCnt Gap
0 0 0.0103 5 0.0103 272
0 2 0.0103 8 0.0103 272 0 0
CPXPARAM_MIP_Cuts_Disjunctive-MIRCut:Disjunctive 0
CPXPARAM_MIP_Cuts_Disjunctive-MIRCut:MIRCut 0
18
Node Left Objective IInf Best_Integer Best_Bound ItCnt Gap
0 0 0.7128 5 0.7128 72
0 2 0.7128 14 0.7128 72 0 0
CPXPARAM_MIP_Cuts_Disjunctive-MIRCut:Disjunctive 0
CPXPARAM_MIP_Cuts_Disjunctive-MIRCut:MIRCut 0
19
Node Left Objective IInf Best_Integer Best_Bound ItCnt Gap
0 0 0.0496 9 0.0496 177
0 2 0.0496 12 0.0496 177 0 0
CPXPARAM_MIP_Cuts_Disjunctive-MIRCut:Disjunctive 0
CPXPARAM_MIP_Cuts_Disjunctive-MIRCut:MIRCut 0
20
Node Left Objective IInf Best_Integer Best_Bound ItCnt Gap
0 0 0.0000 2 0.0000 25
0 2 0.0000 17 0.0000 25 0 0
CPXPARAM_MIP_Cuts_Disjunctive-MIRCut:Disjunctive 0
CPXPARAM_MIP_Cuts_Disjunctive-MIRCut:MIRCut 0
21
Node Left Objective IInf Best_Integer Best_Bound ItCnt Gap
0 0 0.1195 5 0.1195 216
0 2 0.1195 9 0.1195 216 0 0
CPXPARAM_MIP_Cuts_Disjunctive-MIRCut:Disjunctive 0
CPXPARAM_MIP_Cuts_Disjunctive-MIRCut:MIRCut 0
22
Node Left Objective IInf Best_Integer Best_Bound ItCnt Gap
0 0 0.0927 11 0.0927 57
0 2 0.0927 23 0.0927 57 0 0
CPXPARAM_MIP_Cuts_Disjunctive-MIRCut:Disjunctive 0
CPXPARAM_MIP_Cuts_Disjunctive-MIRCut:MIRCut 0
23
Node Left Objective IInf Best_Integer Best_Bound ItCnt Gap
0 0 0.0182 9 0.0182 108
0 2 0.0182 13 0.0182 108 0 0
CPXPARAM_MIP_Cuts_Disjunctive-MIRCut:Disjunctive 0
CPXPARAM_MIP_Cuts_Disjunctive-MIRCut:MIRCut 0
24
Node Left Objective IInf Best_Integer Best_Bound ItCnt Gap
0 0 0.0027 7 0.0027 49
0 2 0.0027 22 0.0038 49 0 0
CPXPARAM_MIP_Cuts_Disjunctive-MIRCut:Disjunctive 0
CPXPARAM_MIP_Cuts_Disjunctive-MIRCut:MIRCut 0
25
Node Left Objective IInf Best_Integer Best_Bound ItCnt Gap
0 0 0.0000 5 0.0000 209
0 2 0.0000 16 0.0000 209 0 0
CPXPARAM_MIP_Cuts_Disjunctive-MIRCut:Disjunctive 0
CPXPARAM_MIP_Cuts_Disjunctive-MIRCut:MIRCut 0
26
Node Left Objective IInf Best_Integer Best_Bound ItCnt Gap
0 0 0.1075 6 0.1075 25
0 2 0.1075 16 0.1075 25 0 0
CPXPARAM_MIP_Cuts_Disjunctive-MIRCut:Disjunctive 0
CPXPARAM_MIP_Cuts_Disjunctive-MIRCut:MIRCut 0
27
Node Left Objective IInf Best_Integer Best_Bound ItCnt Gap
0 0 0.0160 10 0.0160 24
0 2 0.0160 19 0.0160 24 0 0
CPXPARAM_MIP_Cuts_Disjunctive-MIRCut:Disjunctive 0
CPXPARAM_MIP_Cuts_Disjunctive-MIRCut:MIRCut 0
28
Node Left Objective IInf Best_Integer Best_Bound ItCnt Gap
0 0 0.6147 10 0.6147 25
0 2 0.6147 24 0.6147 25 0 0
CPXPARAM_MIP_Cuts_Disjunctive-MIRCut:Disjunctive 0
CPXPARAM_MIP_Cuts_Disjunctive-MIRCut:MIRCut 0
29
Node Left Objective IInf Best_Integer Best_Bound ItCnt Gap
0 0 0.0995 5 0.0995 239
0 2 0.0995 10 0.0995 239 0 0
CPXPARAM_MIP_Cuts_Disjunctive-MIRCut:Disjunctive 0
CPXPARAM_MIP_Cuts_Disjunctive-MIRCut:MIRCut 0
30
Node Left Objective IInf Best_Integer Best_Bound ItCnt Gap
0 0 0.0748 8 0.0748 28
0 2 0.0748 19 0.0748 28 0 0
CPXPARAM_MIP_Cuts_Disjunctive-MIRCut:Disjunctive 0
CPXPARAM_MIP_Cuts_Disjunctive-MIRCut:MIRCut 0
31
Node Left Objective IInf Best_Integer Best_Bound ItCnt Gap
0 0 0.8841 9 0.8841 81
0 0 0.8841 9 MIRcuts:2 83
0 0 0.8841 9 MIRcuts:2 85
0 2 0.8841 16 0.8841 85 0 0
CPXPARAM_MIP_Cuts_Disjunctive-MIRCut:Disjunctive 2
CPXPARAM_MIP_Cuts_Disjunctive-MIRCut:MIRCut 0
32
Node Left Objective IInf Best_Integer Best_Bound ItCnt Gap
0 0 1.1284 7 1.1284 47
0 2 1.1284 22 1.1284 47 0 0
CPXPARAM_MIP_Cuts_Disjunctive-MIRCut:Disjunctive 0
CPXPARAM_MIP_Cuts_Disjunctive-MIRCut:MIRCut 0
33
Node Left Objective IInf Best_Integer Best_Bound ItCnt Gap
0 0 0.0000 3 0.0000 121
0 2 0.0000 8 0.0000 121 0 0
CPXPARAM_MIP_Cuts_Disjunctive-MIRCut:Disjunctive 0
CPXPARAM_MIP_Cuts_Disjunctive-MIRCut:MIRCut 0
34
Node Left Objective IInf Best_Integer Best_Bound ItCnt Gap
0 0 1.5584 8 1.5584 36
0 2 1.5584 20 1.5584 36 0 0
CPXPARAM_MIP_Cuts_Disjunctive-MIRCut:Disjunctive 0
CPXPARAM_MIP_Cuts_Disjunctive-MIRCut:MIRCut 0
35
Node Left Objective IInf Best_Integer Best_Bound ItCnt Gap
0 0 0.0000 4 0.0000 94
0 2 0.0000 7 0.0000 94 0 0
CPXPARAM_MIP_Cuts_Disjunctive-MIRCut:Disjunctive 0
CPXPARAM_MIP_Cuts_Disjunctive-MIRCut:MIRCut 0
36
Node Left Objective IInf Best_Integer Best_Bound ItCnt Gap
0 0 0.0000 6 0.0000 29
0 2 0.0000 14 0.0000 29 0 0
CPXPARAM_MIP_Cuts_Disjunctive-MIRCut:Disjunctive 0
CPXPARAM_MIP_Cuts_Disjunctive-MIRCut:MIRCut 0
37
Node Left Objective IInf Best_Integer Best_Bound ItCnt Gap
0 0 0.0000 3 0.0000 291
0 2 0.0000 6 0.0000 291 0 0
CPXPARAM_MIP_Cuts_Disjunctive-MIRCut:Disjunctive 0
CPXPARAM_MIP_Cuts_Disjunctive-MIRCut:MIRCut 0
38
Node Left Objective IInf Best_Integer Best_Bound ItCnt Gap
0 0 1.0643 9 1.0643 38
0 2 1.0643 19 1.0643 38 0 0
CPXPARAM_MIP_Cuts_Disjunctive-MIRCut:Disjunctive 0
CPXPARAM_MIP_Cuts_Disjunctive-MIRCut:MIRCut 0
39
Node Left Objective IInf Best_Integer Best_Bound ItCnt Gap
0 0 0.1204 10 0.1204 120
0 2 0.1204 14 0.1204 120 0 0
CPXPARAM_MIP_Cuts_Disjunctive-MIRCut:Disjunctive 0
CPXPARAM_MIP_Cuts_Disjunctive-MIRCut:MIRCut 0
